10	5
0	3	2	1	3
1	3	8	7	10
2	3	6	10	7
3	1	5
4	3	5	7	10
5	1	6
6	1	11
7	1	11
8	1	11
9	1	11
10	1	11
11	0
0	0	0	0	0	0	0
1	6	3	2	0	1	2
2	10	4	2	3	5	1
3	8	4	5	0	5	0
4	1	1	4	3	4	5
5	10	1	1	4	0	0
6	10	3	2	0	5	0
7	5	5	0	1	1	3
8	5	2	1	5	0	0
9	1	0	5	0	2	4
10	1	4	2	1	5	2
11	0	0	0	0	0	0
8	7	4	8	5
